(set-logic QF_LIA)
(declare-fun a0 () Int)
(declare-fun a1 () Int)
(declare-fun a2 () Int)
(declare-fun a3 () Int)
(declare-fun a4 () Int)
(declare-fun a5 () Int)
(declare-fun a6 () Int)
(declare-fun a7 () Int)
(assert (not (< a0 a3)))
(assert (< a3 a7))
(assert (< a3 a6))
(assert (< a3 a5))
(assert (< a3 a4))
(assert (not (< a1 a3)))
(assert (< a3 a2))
(assert (< a3 a1))
(assert (< a1 a0))
(assert (< a2 a0))
(assert (not (< a0 a7)))
(assert (not (< a4 a0)))
(assert (< a0 a6))
(assert (not (< a0 a5)))
(assert (< a1 a7))
(assert (< a2 a7))
(assert (not (< a7 a5)))
(assert (not (< a1 a5)))
(assert (not (< a2 a5)))
(assert (< a5 a2))
(assert (< a2 a1))
(check-sat)
(exit)
